NAME : u159
TYPE : OP
DIMENSION : 159
COST_LIMIT : 14729
ROUTE_NODES : 59
ROUTE_SCORE : 3147
ROUTE_COST : 14706
NODE_SEQUENCE_SECTION
1
3
4
5
6
152
7
8
9
10
12
11
13
14
15
16
17
22
23
21
20
19
18
32
33
34
35
37
36
38
39
40
43
42
132
134
133
135
136
137
138
140
139
141
142
143
144
145
146
147
149
150
151
154
155
157
156
2
159
-1
DEPOT_SECTION
1
-1
EOF
